
Gurobi 11.0.3 (win64) logging started Wed Sep 25 12:54:33 2024

Set parameter LogFile to value "C:\Users\ealvarezq\Desktop\D.Representative_days_based_on_RES_and_Demand\IEEE118_ByStages_nc170/openStarNet_IEEE118_ByStages_nc170.log"
Set parameter Method to value 2
Set parameter MIPFocus to value 1
Set parameter Presolve to value 2
Set parameter RINS to value 100
Set parameter MIPGap to value 0.01
Set parameter Threads to value 24
Set parameter TimeLimit to value 259200
Set parameter IterationLimit to value 760000000
Gurobi Optimizer version 11.0.3 build v11.0.3rc0 (win64 - Windows Server 2019.0 (17763.2))

CPU model: AMD Ryzen Threadripper PRO 3955WX 16-Cores, instruction set [SSE2|AVX|AVX2]
Thread count: 16 physical cores, 32 logical processors, using up to 24 threads

Optimize a model with 240383 rows, 174197 columns and 613620 nonzeros
Model fingerprint: 0x380383e7
Variable types: 174163 continuous, 34 integer (34 binary)
Coefficient statistics:
  Matrix range     [4e-03, 9e+03]
  Objective range  [1e+00, 1e+00]
  Bounds range     [1e-04, 6e+00]
  RHS range        [1e-04, 6e+00]
Presolve removed 163184 rows and 81629 columns
Presolve time: 2.00s
Presolved: 77199 rows, 92568 columns, 280976 nonzeros
Variable types: 92534 continuous, 34 integer (34 binary)
Root relaxation presolved: 77199 rows, 92568 columns, 280976 nonzeros

Root barrier log...

Ordering time: 0.06s

Barrier statistics:
 Dense cols : 34
 AA' NZ     : 3.522e+05
 Factor NZ  : 1.393e+06 (roughly 80 MB of memory)
 Factor Ops : 3.074e+07 (less than 1 second per iteration)
 Threads    : 23

                  Objective                Residual
Iter       Primal          Dual         Primal    Dual     Compl     Time
   0   8.35196955e+06 -5.47195677e+08  1.45e+01 5.60e+02  1.06e+04     3s
   1   2.89713407e+06 -2.07345438e+08  4.68e+00 1.01e-08  2.78e+03     3s
   2   4.65062946e+05 -9.23538146e+07  3.72e-01 1.52e-08  5.26e+02     3s
   3   2.92671692e+05 -1.24203901e+07  7.18e-02 3.17e-09  6.40e+01     3s
   4   1.70871435e+05 -1.93855834e+06  8.09e-03 4.30e-10  9.64e+00     4s
   5   7.74512706e+04 -5.18256251e+05  2.47e-03 1.05e-10  2.69e+00     4s
   6   3.54928154e+04 -1.39284767e+05  9.22e-04 2.74e-11  7.85e-01     4s
   7   1.75570767e+04 -4.69480567e+04  3.57e-04 9.11e-12  2.89e-01     4s
   8   1.29779495e+04 -1.90611934e+04  2.40e-04 3.50e-12  1.44e-01     4s
   9   8.91673244e+03 -1.47645956e+04  1.41e-04 2.84e-12  1.06e-01     4s
  10   6.35174743e+03 -7.29266130e+03  8.65e-05 1.52e-12  6.12e-02     4s
  11   4.95547355e+03 -3.25150911e+03  6.08e-05 1.36e-12  3.68e-02     4s
  12   3.56010174e+03 -1.58933187e+03  3.83e-05 1.16e-11  2.31e-02     4s
  13   2.71408656e+03  4.99062390e+01  2.31e-05 1.61e-12  1.19e-02     4s
  14   2.25351294e+03  7.20691299e+02  1.50e-05 1.73e-12  6.87e-03     4s
  15   1.93168634e+03  9.05592431e+02  9.37e-06 3.47e-11  4.60e-03     4s
  16   1.77475210e+03  1.02231733e+03  6.67e-06 1.42e-12  3.37e-03     4s
  17   1.64963341e+03  1.11273148e+03  4.54e-06 1.71e-12  2.41e-03     4s
  18   1.56546034e+03  1.20484313e+03  3.13e-06 1.66e-12  1.62e-03     4s
  19   1.50521240e+03  1.25928715e+03  2.14e-06 1.19e-12  1.10e-03     4s
  20   1.45579444e+03  1.26573813e+03  1.39e-06 1.21e-12  8.52e-04     4s
  21   1.43084173e+03  1.31177452e+03  9.61e-07 1.90e-12  5.34e-04     4s
  22   1.40611862e+03  1.34318397e+03  5.49e-07 1.68e-12  2.82e-04     4s
  23   1.38942814e+03  1.35554083e+03  2.73e-07 1.39e-12  1.52e-04     4s
  24   1.38198089e+03  1.36038426e+03  1.52e-07 1.55e-12  9.68e-05     4s
  25   1.37721450e+03  1.36660849e+03  7.91e-08 1.53e-12  4.76e-05     4s
  26   1.37422668e+03  1.36927150e+03  3.36e-08 1.34e-12  2.22e-05     4s
  27   1.37226566e+03  1.37137308e+03  4.67e-09 2.21e-12  4.00e-06     4s
  28   1.37204126e+03  1.37182544e+03  6.13e-09 2.06e-12  9.68e-07     4s
  29   1.37194365e+03  1.37186505e+03  4.14e-09 1.91e-12  3.52e-07     4s
  30   1.37191356e+03  1.37188021e+03  2.00e-09 1.73e-12  1.50e-07     4s
  31   1.37189784e+03  1.37189220e+03  3.76e-09 1.77e-12  2.53e-08     5s
  32   1.37189487e+03  1.37189404e+03  1.77e-08 2.55e-12  3.74e-09     5s
  33   1.37189436e+03  1.37189434e+03  2.07e-08 1.61e-12  8.34e-11     5s

Barrier solved model in 33 iterations and 4.69 seconds (3.32 work units)
Optimal objective 1.37189436e+03


Root crossover log...

       0 DPushes remaining with DInf 0.0000000e+00                 5s

    1788 PPushes remaining with PInf 0.0000000e+00                 5s
       0 PPushes remaining with PInf 0.0000000e+00                 6s

  Push phase complete: Pinf 0.0000000e+00, Dinf 5.6489959e-11      6s


Root simplex log...

Iteration    Objective       Primal Inf.    Dual Inf.      Time
    5525    1.3718944e+03   0.000000e+00   0.000000e+00      6s
    5525    1.3718944e+03   0.000000e+00   0.000000e+00      6s

Root relaxation: objective 1.371894e+03, 5525 iterations, 3.55 seconds (2.24 work units)

    Nodes    |    Current Node    |     Objective Bounds      |     Work
 Expl Unexpl |  Obj  Depth IntInf | Incumbent    BestBd   Gap | It/Node Time

     0     0 1371.89436    0   24          - 1371.89436      -     -    7s
H    0     0                    6138.3078635 1371.89436  77.7%     -   18s
H    0     0                    2846.8703035 1371.89436  51.8%     -   25s
     0     0 1415.64243    0   25 2846.87030 1415.64243  50.3%     -   53s
H    0     0                    1764.3788184 1415.64243  19.8%     -   61s
     0     0 1415.69371    0   25 1764.37882 1415.69371  19.8%     -   62s
     0     0 1419.45224    0   25 1764.37882 1419.45224  19.5%     -   68s
     0     0 1419.45281    0   25 1764.37882 1419.45281  19.5%     -   70s
     0     0 1420.75900    0   25 1764.37882 1420.75900  19.5%     -   78s
     0     0 1420.90190    0   25 1764.37882 1420.90190  19.5%     -   79s
     0     0 1420.90521    0   25 1764.37882 1420.90521  19.5%     -   80s
     0     0 1421.75276    0   24 1764.37882 1421.75276  19.4%     -   86s
     0     0 1421.78018    0   24 1764.37882 1421.78018  19.4%     -   88s
     0     0 1421.78230    0   24 1764.37882 1421.78230  19.4%     -   88s
     0     0 1421.82232    0   24 1764.37882 1421.82232  19.4%     -   92s
H    0     0                    1592.1796237 1421.82232  10.7%     -  550s
     0     2 1421.82232    0   24 1592.17962 1421.82232  10.7%     -  554s
     1     4 1550.93502    1   24 1592.17962 1421.98527  10.7%  8416  576s
     3     8 1566.97291    2   24 1592.17962 1462.50156  8.14%  5342  585s
     7    12     cutoff    3      1592.17962 1480.90033  6.99%  3398  610s
    15    12 1506.60358    4   21 1592.17962 1487.92155  6.55%  3138  651s
    27    12     cutoff    5      1592.17962 1496.51128  6.01%  4429  735s
    39    12 1524.49926    6   21 1592.17962 1515.64482  4.81%  5485  790s
    51    16 1577.38332    7   20 1592.17962 1524.58813  4.25%  5064  802s
    63    14     cutoff    8      1592.17962 1532.49334  3.75%  4660  867s
    79    14 1537.90736    9   16 1592.17962 1533.53730  3.68%  4545  890s
    93    14     cutoff   10      1592.17962 1538.05394  3.40%  4312  901s
   107    12 1548.97292   11   14 1592.17962 1541.60021  3.18%  3845  905s
   135    11 1579.16231   13   13 1592.17962 1551.25210  2.57%  3182  913s
   154    19 1590.55359   14   12 1592.17962 1563.08282  1.83%  2867  915s

Cutting planes:
  Implied bound: 56
  MIR: 1142
  RLT: 12

Explored 208 nodes (473256 simplex iterations) in 919.29 seconds (744.70 work units)
Thread count was 24 (of 32 available processors)

Solution count 4: 1592.18 1764.38 2846.87 6138.31 

Optimal solution found (tolerance 1.00e-02)
Best objective 1.592179623661e+03, best bound 1.580009943132e+03, gap 0.7643%

Gurobi 11.0.3 (win64) logging started Wed Sep 25 13:12:38 2024

Set parameter LogFile to value "C:\Users\ealvarezq\Desktop\D.Representative_days_based_on_RES_and_Demand\IEEE118_ByStages_nc170/openStarNet_IEEE118_ByStages_nc170.log"
Set parameter Method to value 2
Set parameter MIPFocus to value 1
Set parameter Presolve to value 2
Set parameter RINS to value 100
Set parameter MIPGap to value 0.01
Set parameter Threads to value 24
Set parameter TimeLimit to value 259200
Set parameter IterationLimit to value 760000000
Gurobi Optimizer version 11.0.3 build v11.0.3rc0 (win64 - Windows Server 2019.0 (17763.2))

CPU model: AMD Ryzen Threadripper PRO 3955WX 16-Cores, instruction set [SSE2|AVX|AVX2]
Thread count: 16 physical cores, 32 logical processors, using up to 24 threads

Optimize a model with 240383 rows, 174163 columns and 590466 nonzeros
Model fingerprint: 0xf2c1f10b
Coefficient statistics:
  Matrix range     [4e-03, 9e+03]
  Objective range  [1e+00, 1e+00]
  Bounds range     [1e-04, 6e+00]
  RHS range        [1e-04, 3e+02]
Presolve removed 179027 rows and 76476 columns
Presolve time: 0.54s
Presolved: 61356 rows, 97857 columns, 239256 nonzeros

Ordering time: 0.04s

Barrier statistics:
 AA' NZ     : 2.026e+05
 Factor NZ  : 8.057e+05 (roughly 70 MB of memory)
 Factor Ops : 1.164e+07 (less than 1 second per iteration)
 Threads    : 24

                  Objective                Residual
Iter       Primal          Dual         Primal    Dual     Compl     Time
   0   8.96317076e+06 -3.73159817e+08  4.95e+01 7.21e+01  4.86e+03     1s
   1   1.41043380e+06 -8.16540562e+07  6.44e+00 7.39e-13  6.65e+02     1s
   2   4.12435223e+05 -1.54325430e+07  1.06e+00 6.82e-13  1.03e+02     1s
   3   1.79791307e+05 -2.48593676e+06  4.30e-02 4.55e-13  1.30e+01     1s
   4   7.19326008e+04 -4.11595004e+05  9.08e-03 1.59e-12  2.28e+00     1s
   5   2.52952143e+04 -1.00370614e+05  2.36e-03 7.96e-13  5.89e-01     1s
   6   1.40884093e+04 -4.25038538e+04  1.01e-03 4.55e-13  2.65e-01     1s
   7   1.00285832e+04 -1.18689205e+04  6.07e-04 1.14e-13  1.02e-01     1s
   8   6.79490662e+03 -5.00701509e+03  3.49e-04 1.12e-13  5.52e-02     1s
   9   4.45180956e+03 -1.83021007e+03  1.83e-04 9.42e-14  2.94e-02     1s
  10   3.27092661e+03 -4.89573550e+01  1.03e-04 1.21e-13  1.55e-02     1s
  11   2.66368501e+03  6.63487231e+02  6.43e-05 1.32e-13  9.35e-03     1s
  12   2.36984853e+03  1.01042244e+03  4.61e-05 1.25e-13  6.35e-03     1s
  13   2.08048440e+03  1.16850065e+03  2.85e-05 9.55e-14  4.26e-03     1s
  14   1.95874928e+03  1.33350549e+03  2.11e-05 1.01e-13  2.92e-03     1s
  15   1.80246465e+03  1.41550184e+03  1.19e-05 1.40e-13  1.81e-03     1s
  16   1.69876147e+03  1.50887014e+03  5.89e-06 1.13e-13  8.87e-04     2s
  17   1.67649779e+03  1.54554051e+03  4.65e-06 1.33e-13  6.12e-04     2s
  18   1.64364754e+03  1.55956425e+03  2.83e-06 1.22e-13  3.93e-04     2s
  19   1.62232382e+03  1.57799706e+03  1.63e-06 1.48e-13  2.07e-04     2s
  20   1.60533396e+03  1.58825565e+03  6.99e-07 1.67e-13  7.98e-05     2s
  21   1.59950570e+03  1.59073260e+03  3.88e-07 1.37e-13  4.10e-05     2s
  22   1.59628013e+03  1.59154625e+03  2.15e-07 1.73e-13  2.21e-05     2s
  23   1.59366092e+03  1.59181365e+03  7.62e-08 1.53e-13  8.63e-06     2s
  24   1.59256951e+03  1.59202692e+03  1.90e-08 1.20e-13  2.54e-06     2s
  25   1.59220448e+03  1.59215681e+03  9.60e-10 1.62e-13  2.23e-07     2s
  26   1.59218019e+03  1.59217422e+03  3.29e-10 1.47e-13  2.79e-08     2s
  27   1.59217970e+03  1.59217948e+03  3.09e-10 1.65e-13  1.01e-09     2s
  28   1.59217962e+03  1.59217962e+03  2.81e-11 1.98e-13  1.01e-12     2s

Barrier solved model in 28 iterations and 1.88 seconds (1.17 work units)
Optimal objective 1.59217962e+03

Crossover log...

   17654 DPushes remaining with DInf 0.0000000e+00                 2s
       0 DPushes remaining with DInf 0.0000000e+00                 2s

     575 PPushes remaining with PInf 0.0000000e+00                 2s
       0 PPushes remaining with PInf 0.0000000e+00                 2s

  Push phase complete: Pinf 0.0000000e+00, Dinf 3.7911271e-12      2s

Iteration    Objective       Primal Inf.    Dual Inf.      Time
    3857    1.5921796e+03   0.000000e+00   0.000000e+00      2s

Solved in 3857 iterations and 2.39 seconds (1.46 work units)
Optimal objective  1.592179624e+03
